% From JaCoP's nonogramRepository/data025.nin
 rows = 25;
 row_rule_len = 3;
 row_rules = array2d(1..rows, 1..row_rule_len, 
[
 0,0,1,
 0,0,1,
 0,0,1,
 0,0,2,
 0,0,1,
 0,0,2,
 5,2,1,
 6,3,2,
 0,10,2,
 0,0,11,
 0,7,4,
 0,8,6,
 0,9,5,
 0,0,17,
 0,9,8,
 0,9,9,
 0,4,14,
 3,6,4,
 0,12,3,
 6,5,1,
 0,7,5,
 0,6,4,
 0,6,4,
 0,4,3,
 0,0,2
]);

 cols = 20;
 col_rule_len = 3;
 col_rules = array2d(1..cols, 1..col_rule_len, 
[
 0,0,2,
 0,0,4,
 1,5,2,
 3,5,4,
 4,5,6,
 4,5,7,
 0,0,17,
 0,0,16,
 0,10,4,
 0,7,5,
 0,8,4,
 0,6,8,
 0,4,11,
 0,1,13,
 0,0,17,
 2,7,7,
 0,3,8,
 3,2,6,
 4,1,5,
 0,0,4
]);

